50 62
   1   -1   51   37   16   19   32   18   42   10   11    5   38   22   24    2   51   13   24   17    6   16   60   33   32   44   40    2    4   12   37   20   31   20   11    1   36   41    8   57   -1   47   40   43   40   37   -1   21   -1   47 
   0    1   41   22    2   -1   14   59    6   55    0   53   31   59   21   59   -1   -1   -1   16   -1   14   -1   11   59   31   34   26    2   54   21    4    6   34   -1   -1    3   -1   12   17   51   -1   59   25   51   -1   43   14   47   55 
   0    0    1    0   57   -1   35   29    5   58   61   -1    5   33   16   36   31   24   49   29   16   -1   61    1   13   40   14   36   43   26    2   44   21   50   -1   18   12   11   48   34   45   -1   51   49   24   -1   -1   41   19   -1 
   0    0    0    1   -1    8   32   10   29   50   -1   13   49   56   12   -1   40   -1   41   40   -1   46   11   52   28   -1   20   44   -1    4   48   22   42   15   49   -1   42    9   56   35   10   39   22   43   20    2   35   16   35   -1 
   0    0    0    0    1   39   20   -1   55   -1   -1   -1   11   -1   -1   22    9   25   61   -1   53   49   21    4   39   37   -1   37   53   -1    1   41    1   22   -1   -1   -1   27   24   49   53   49   36   14   -1   44   45   -1   30   -1 
   0    0    0    0    0    1   40   61   -1   -1   -1    2   26   -1   23   -1   10   24   -1   41   28   -1   46   23   38   17   38   39    6   13   43   -1   54   32   -1   41   47    1   49   61   -1   15    3    0   58   24   -1   15   -1   34 
   0    0    0    0    0    0    1   26   50   20   27   46   56    2   25    1   43   43   42   21   60   38   18   13   12    4   22   36   45   44    1   26    0   50   28   -1    4   61   54   -1   11   53   24   23   16   30   25   -1   58   29 
   0    0    0    0    0    0    0    1   12   24   44   13   35   27   32   46   17   14   16   -1   -1   -1   18   -1   29   36   58   40   57   48   30   -1    4   21    1    9   52   15   -1   39   61   24   57   47   -1   -1   53   23   31   24 
   0    0    0    0    0    0    0    0    1   27   29   53   39   39   -1   21   -1   19   -1   47   11   20   20   57   20    6    8   58   26   44   -1   26   23   41   -1   -1   26   59   34   -1    9   51   10    5   30   38   10    7   11    0 
   0    0    0    0    0    0    0    0    0    1   44    9   -1    3   50   48   17   -1    0   49   28    8   -1   29   49   -1   40   56   59   16    2   14   53   26   52   22   59    6   31   49   60   50   -1   51    7   19    5   38   -1   -1 
   0    0    0    0    0    0    0    0    0    0    0   -1    9    3   13   17   14   -1    6   40   53   59   59   10    9   43   45   20   28   46   35   49   -1   46   -1   46   49   11   33   17   23   46   57   51   57   33   45   55   47   33 
   0    0    0    0    0    0    0    0    0    0    0    0    5   61   41   61   17   -1   13   26   44   40   15   37   -1   49   10   43   48   18   -1   24   18    0   -1   -1   55   43   -1   -1    4   -1    3   -1   31   39   52   59   42   25 
   0    0    0    0    0    0    0    0    0    0    0    0    0    4   12   -1   -1   34   -1   12   59   34   40   -1   13   58   19   43   -1   15   13   -1   24   -1   -1   -1    5   41   29   32   20   59   -1   24    2   32   23   29    5   49 
   0    0    0    0    0    0    0    0    0    0    0    0    0    0   47   46    2   61   44   39   30   21    0   42   -1   24   59   59   -1   -1   50   43   -1   44   -1   58   31   42   27   17   -1   28   30   -1    7   46   35    4   40   11 
   0    0    0    0    0    0    0    0    0    0    0    0    0    0    0   -1   23   -1    8    4   33   -1   40   60   54   11    8   51   18   23   44   28   51   18    1    8   11   -1   60   33   43   33   21    3   59   33   19   41   -1   30 
   0    0    0    0    0    0    0    0    0    0    0    0    0    0    0    0   16   -1   17   26   10   45   37   22   37    4   55   61   39   50   14    1   -1   26    7    5    7   12   46   51   35   37   -1   10   20   17   17   48   29   44 
   0    0    0    0    0    0    0    0    0    0    0    0    0    0    0    0    0   -1   -1   40   41   -1   22   30   34   -1   54   33   -1   23    7    8   47   37   40    4   19   33    6   49   47   21   55   23   -1   54    4   55   41   30 
   0    0    0    0    0    0    0    0    0    0    0    0    0    0    0    0    0    0   15   22    7   23   -1   12   -1   36   57   46   27   18    6   26   51   10   22   16   16    5   27   -1   -1   -1   38   57   -1   28   46   59   -1   19 
   0    0    0    0    0    0    0    0    0    0    0    0    0    0    0    0    0    0    0   12   -1   39   11   28   25   31   -1   24   48   57   -1   60   45   32   57   40   31   50    5   12    7   37   59   23   -1   29   -1   -1   -1   -1 
   0    0    0    0    0    0    0    0    0    0    0    0    0    0    0    0    0    0    0    0   43   25   -1    2   40   11   46    8   -1   30   55   33   31   -1   32   20   49   36   44   -1   28   31   49   11   -1   -1    8   32   -1    5 
   0    0    0    0    0    0    0    0    0    0    0    0    0    0    0    0    0    0    0    0    0   -1   46   -1   20   23   30   21   16   15   40   31   11   46   60   -1   10   58   22   43   28    0   53   47   56    8   61   23   54   59 
   0    0    0    0    0    0    0    0    0    0    0    0    0    0    0    0    0    0    0    0    0    0   57   -1   38    4   35   46   28   17   51   50   31   47   48   21   59   -1    2   53   34   18   47   -1   51   12   -1   17   22   50 
   0    0    0    0    0    0    0    0    0    0    0    0    0    0    0    0    0    0    0    0    0    0    0   29    9   -1   -1   -1   25   -1   43   -1   55   44   39    4   -1   35   -1   40   -1   53   42   -1   61   56   54   -1   38   31 
   0    0    0    0    0    0    0    0    0    0    0    0    0    0    0    0    0    0    0    0    0    0    0    0    0   34   61   -1   29   27   30   -1   27   16   14   51   43   -1   12   36   -1   23   -1   19    8   60   60   36   56   44 
   0    0    0    0    0    0    0    0    0    0    0    0    0    0    0    0    0    0    0    0    0    0    0    0    0    0   25   28   27   14    1   24   20   60   -1   57   -1   -1   -1   -1   19   -1   51   43   58   24   15   54   -1   32 
   0    0    0    0    0    0    0    0    0    0    0    0    0    0    0    0    0    0    0    0    0    0    0    0    0    0   48   44   -1   41   -1   16   10    5   -1   27   35   29    0   27   41   -1   19   -1   -1   18   54   61   14   37 
   0    0    0    0    0    0    0    0    0    0    0    0    0    0    0    0    0    0    0    0    0    0    0    0    0    0    0   20   -1   -1   59    6   12   30   39   29   13   -1   45   30   -1   37    5   54   57   20    3   21    7    0 
   0    0    0    0    0    0    0    0    0    0    0    0    0    0    0    0    0    0    0    0    0    0    0    0    0    0    0    0   33    2   -1   -1   -1   36   34   -1   47   -1    3   33   47   29   42   38   -1    8   42   -1   29   -1 
   0    0    0    0    0    0    0    0    0    0    0    0    0    0    0    0    0    0    0    0    0    0    0    0    0    0    0    0    0   28   50    6    0   13   53   -1    7   44   38   -1    4   58   -1   11   10   11    0    6   34   10 
   0    0    0    0    0    0    0    0    0    0    0    0    0    0    0    0    0    0    0    0    0    0    0    0    0    0    0    0    0    0   24   30   54   61   44   14    9   14   10   61    4    0   21   55   48   36    4   57   29   31 
   0    0    0    0    0    0    0    0    0    0    0    0    0    0    0    0    0    0    0    0    0    0    0    0    0    0    0    0    0    0    0   20   41   -1   -1   11   58   -1   -1   49    1   21   19    3   51    8   -1   11   -1    6 
   0    0    0    0    0    0    0    0    0    0    0    0    0    0    0    0    0    0    0    0    0    0    0    0    0    0    0    0    0    0    0    0   52   33   48   -1   49   12   20   35   49   40   10    3   52   19   56   -1   -1    2 
   0    0    0    0    0    0    0    0    0    0    0    0    0    0    0    0    0    0    0    0    0    0    0    0    0    0    0    0    0    0    0    0    0   36    8   19   48   23    4   45   16   52   14   -1   18   35   -1   16   39   18 
   0    0    0    0    0    0    0    0    0    0    0    0    0    0    0    0    0    0    0    0    0    0    0    0    0    0    0    0    0    0    0    0    0    0   40   -1    6   39    5   -1   45   -1   27   13   46   13   38   55   18   60 
   0    0    0    0    0    0    0    0    0    0    0    0    0    0    0    0    0    0    0    0    0    0    0    0    0    0    0    0    0    0    0    0    0    0    0   44    8   20   40   18   25   23   52    6    2   52   -1   52   52   19 
   0    0    0    0    0    0    0    0    0    0    0    0    0    0    0    0    0    0    0    0    0    0    0    0    0    0    0    0    0    0    0    0    0    0    0    0   -1   12   46    3   -1   32    5   26   -1   20   -1    2   44    3 
   0    0    0    0    0    0    0    0    0    0    0    0    0    0    0    0    0    0    0    0    0    0    0    0    0    0    0    0    0    0    0    0    0    0    0    0    0   -1   20   -1   14   -1   21    9    5   46   23   40   36   -1 
   0    0    0    0    0    0    0    0    0    0    0    0    0    0    0    0    0    0    0    0    0    0    0    0    0    0    0    0    0    0    0    0    0    0    0    0    0    0   17   19   18   12   57   57   -1   26    9   34   -1   55 
   0    0    0    0    0    0    0    0    0    0    0    0    0    0    0    0    0    0    0    0    0    0    0    0    0    0    0    0    0    0    0    0    0    0    0    0    0    0    0   -1   18   45    7   31    9    3   26   45   38   21 
   0    0    0    0    0    0    0    0    0    0    0    0    0    0    0    0    0    0    0    0    0    0    0    0    0    0    0    0    0    0    0    0    0    0    0    0    0    0    0    0   -1   48    0   56    3   49   -1   -1   -1   43 
   0    0    0    0    0    0    0    0    0    0    0    0    0    0    0    0    0    0    0    0    0    0    0    0    0    0    0    0    0    0    0    0    0    0    0    0    0    0    0    0    0   50   46   14   22   14   38   -1   53    3 
   0    0    0    0    0    0    0    0    0    0    0    0    0    0    0    0    0    0    0    0    0    0    0    0    0    0    0    0    0    0    0    0    0    0    0    0    0    0    0    0    0    0   26    8   61   19    1   57   44    4 
   0    0    0    0    0    0    0    0    0    0    0    0    0    0    0    0    0    0    0    0    0    0    0    0    0    0    0    0    0    0    0    0    0    0    0    0    0    0    0    0    0    0    0   59   -1   37   -1   -1    8   26 
   0    0    0    0    0    0    0    0    0    0    0    0    0    0    0    0    0    0    0    0    0    0    0    0    0    0    0    0    0    0    0    0    0    0    0    0    0    0    0    0    0    0    0    0   -1   -1   10   57   -1   37 
   0    0    0    0    0    0    0    0    0    0    0    0    0    0    0    0    0    0    0    0    0    0    0    0    0    0    0    0    0    0    0    0    0    0    0    0    0    0    0    0    0    0    0    0    0   21   20   23   53    8 
   0    0    0    0    0    0    0    0    0    0    0    0    0    0    0    0    0    0    0    0    0    0    0    0    0    0    0    0    0    0    0    0    0    0    0    0    0    0    0    0    0    0    0    0    0    0   -1    2   18    8 
   0    0    0    0    0    0    0    0    0    0    0    0    0    0    0    0    0    0    0    0    0    0    0    0    0    0    0    0    0    0    0    0    0    0    0    0    0    0    0    0    0    0    0    0    0    0    0   35   20    3 
   0    0    0    0    0    0    0    0    0    0    0    0    0    0    0    0    0    0    0    0    0    0    0    0    0    0    0    0    0    0    0    0    0    0    0    0    0    0    0    0    0    0    0    0    0    0    0    0   52   38 
   0    0    0    0    0    0    0    0    0    0    0    0    0    0    0    0    0    0    0    0    0    0    0    0    0    0    0    0    0    0    0    0    0    0    0    0    0    0    0    0    0    0    0    0    0    0    0    0    0    4 
   0    0    0    0    0    0    0    0    0    0    0    0    0    0    0    0    0    0    0    0    0    0    0    0    0    0    0    0    0    0    0    0    0    0    0    0    0    0    0    0    0    0    0    0    0    0    0    0    0    0 
